NAME: tsp45_27
COMMENT: 45-tsp problem (Padberg/Rinaldi)
TYPE: TSP
DIMENSION: 45
EDGE_WEIGHT_TYPE : EUC_2D
NODE_COORD_SECTION
1 8 8
2 30 33
3 8 37
4 17 5
5 9 28
6 23 9
7 16 19
8 13 20
9 11 22
10 37 2
11 23 26
12 38 4
13 33 24
14 31 13
15 11 25
16 35 19
17 2 23
18 32 4
19 19 9
20 16 5
21 26 3
22 8 22
23 12 18
24 19 25
25 9 19
26 3 0
27 16 4
28 10 8
29 17 15
30 27 14
31 9 2
32 16 12
33 38 34
34 38 8
35 1 31
36 3 5
37 6 17
38 10 7
39 38 0
40 26 9
41 35 1
42 7 24
43 33 36
44 7 19
45 30 26
